200 975
1 6 1
1 85 1
1 157 1
2 6 1
2 7 1
2 8 1
2 11 1
2 12 1
2 24 1
2 38 1
2 56 1
2 69 1
2 77 1
2 83 1
2 84 1
2 88 1
2 96 1
2 102 1
2 106 1
2 184 1
2 197 1
3 6 1
3 7 1
3 8 1
3 9 1
3 13 1
3 15 1
3 16 1
3 17 1
3 18 1
3 19 1
3 21 1
3 25 1
3 31 1
3 39 1
3 49 1
3 51 1
3 53 1
3 57 1
3 75 1
3 76 1
3 78 1
3 87 1
3 129 1
3 142 1
3 147 1
3 148 1
3 156 1
3 163 1
3 165 1
3 168 1
3 184 1
3 196 1
3 198 1
4 6 1
4 7 1
4 8 1
4 9 1
4 13 1
4 14 1
4 15 1
4 16 1
4 22 1
4 26 1
4 34 1
4 35 1
4 36 1
4 41 1
4 47 1
4 51 1
4 53 1
4 54 1
4 59 1
4 61 1
4 66 1
4 79 1
4 84 1
4 87 1
4 89 1
4 98 1
4 99 1
4 100 1
4 101 1
4 107 1
4 109 1
4 111 1
4 113 1
4 119 1
4 139 1
4 147 1
4 161 1
4 162 1
4 165 1
4 167 1
4 181 1
4 188 1
4 193 1
4 195 1
4 196 1
4 197 1
5 6 1
5 7 1
5 8 1
5 9 1
5 10 1
5 18 1
5 21 1
5 25 1
5 26 1
5 30 1
5 36 1
5 40 1
5 44 1
5 45 1
5 49 1
5 53 1
5 61 1
5 63 1
5 65 1
5 74 1
5 78 1
5 104 1
5 109 1
5 127 1
6 7 1
6 10 1
6 11 1
6 12 1
6 14 1
6 17 1
6 18 1
6 19 1
6 23 1
6 24 1
6 26 1
6 28 1
6 30 1
6 37 1
6 40 1
6 45 1
6 47 1
6 48 1
6 51 1
6 84 1
6 94 1
6 106 1
6 119 1
6 160 1
6 181 1
6 188 1
7 8 1
7 9 1
7 10 1
7 11 1
7 12 1
7 13 1
7 14 1
7 17 1
7 19 1
7 20 1
7 23 1
7 31 1
7 33 1
7 35 1
7 41 1
7 43 1
7 44 1
7 45 1
7 51 1
7 52 1
7 59 1
7 64 1
7 66 1
7 68 1
7 76 1
7 79 1
7 82 1
7 93 1
7 101 1
7 115 1
7 128 1
7 140 1
7 144 1
7 145 1
7 156 1
7 164 1
7 177 1
7 178 1
7 182 1
7 186 1
8 9 1
8 10 1
8 11 1
8 13 1
8 14 1
8 16 1
8 20 1
8 22 1
8 23 1
8 24 1
8 28 1
8 32 1
8 34 1
8 39 1
8 54 1
8 55 1
8 57 1
8 65 1
8 71 1
8 72 1
8 73 1
8 80 1
8 81 1
8 101 1
8 120 1
8 131 1
8 148 1
8 178 1
8 183 1
8 186 1
9 10 1
9 12 1
9 13 1
9 16 1
9 22 1
9 28 1
9 30 1
9 34 1
9 35 1
9 63 1
9 80 1
9 96 1
9 106 1
9 107 1
9 115 1
9 128 1
9 137 1
9 139 1
9 152 1
9 154 1
9 157 1
9 179 1
9 184 1
10 11 1
10 15 1
10 17 1
10 18 1
10 19 1
10 20 1
10 21 1
10 22 1
10 27 1
10 29 1
10 30 1
10 31 1
10 36 1
10 38 1
10 44 1
10 47 1
10 48 1
10 52 1
10 55 1
10 60 1
10 69 1
10 70 1
10 73 1
10 75 1
10 77 1
10 82 1
10 118 1
10 119 1
10 122 1
10 129 1
10 131 1
10 132 1
10 141 1
10 143 1
10 151 1
10 152 1
10 169 1
10 172 1
10 173 1
10 176 1
10 178 1
10 187 1
10 196 1
11 12 1
11 24 1
11 27 1
11 29 1
11 31 1
11 43 1
11 57 1
11 60 1
11 82 1
11 100 1
11 104 1
11 141 1
11 144 1
11 176 1
11 198 1
12 15 1
12 16 1
12 20 1
12 25 1
12 29 1
12 34 1
12 37 1
12 40 1
12 44 1
12 46 1
12 49 1
12 59 1
12 62 1
12 63 1
12 67 1
12 74 1
12 107 1
12 111 1
12 121 1
12 125 1
12 126 1
12 136 1
12 140 1
12 145 1
12 162 1
12 167 1
12 190 1
13 14 1
13 15 1
13 40 1
13 45 1
13 47 1
13 50 1
13 52 1
13 64 1
13 79 1
13 98 1
14 18 1
14 21 1
14 22 1
14 26 1
14 27 1
14 28 1
14 29 1
14 33 1
14 39 1
14 50 1
14 56 1
14 81 1
14 111 1
14 131 1
14 148 1
14 158 1
14 173 1
14 197 1
15 17 1
15 25 1
15 48 1
15 58 1
15 71 1
15 104 1
15 108 1
15 114 1
15 130 1
15 173 1
15 193 1
15 200 1
16 19 1
16 42 1
16 44 1
16 48 1
16 77 1
16 101 1
16 116 1
16 118 1
16 126 1
16 136 1
16 141 1
16 186 1
16 189 1
17 23 1
17 33 1
17 54 1
17 56 1
17 80 1
17 89 1
17 114 1
17 116 1
17 122 1
17 144 1
17 149 1
17 166 1
18 31 1
18 38 1
18 41 1
18 55 1
18 58 1
18 70 1
18 91 1
18 98 1
18 105 1
18 110 1
18 112 1
18 119 1
18 133 1
18 194 1
19 20 1
19 21 1
19 24 1
19 32 1
19 35 1
19 46 1
19 47 1
19 51 1
19 56 1
19 60 1
19 67 1
19 70 1
19 76 1
19 85 1
19 86 1
19 93 1
19 98 1
19 99 1
19 108 1
19 124 1
19 125 1
19 134 1
19 135 1
19 151 1
19 188 1
19 192 1
20 23 1
20 25 1
20 27 1
20 30 1
20 32 1
20 42 1
20 43 1
20 63 1
20 72 1
20 73 1
20 88 1
20 100 1
20 113 1
20 120 1
20 122 1
20 180 1
20 182 1
20 200 1
21 29 1
21 38 1
21 55 1
21 58 1
21 61 1
21 65 1
21 80 1
21 81 1
21 91 1
21 132 1
21 139 1
21 172 1
21 182 1
21 186 1
22 28 1
22 43 1
22 94 1
22 113 1
22 120 1
22 129 1
22 138 1
22 171 1
22 174 1
23 26 1
23 27 1
23 33 1
23 36 1
23 126 1
23 137 1
23 138 1
23 147 1
23 174 1
23 175 1
24 36 1
24 46 1
24 69 1
24 74 1
24 77 1
24 79 1
24 96 1
24 97 1
24 100 1
24 145 1
24 156 1
24 167 1
24 196 1
25 62 1
25 66 1
25 72 1
25 75 1
25 117 1
25 125 1
25 150 1
25 190 1
26 32 1
26 45 1
26 54 1
26 55 1
26 61 1
26 68 1
26 75 1
26 76 1
26 82 1
26 95 1
26 105 1
26 106 1
26 114 1
26 123 1
26 149 1
26 153 1
26 168 1
26 179 1
26 183 1
27 39 1
27 41 1
27 46 1
27 69 1
27 73 1
27 88 1
27 90 1
27 96 1
27 123 1
27 165 1
27 190 1
28 39 1
28 66 1
28 127 1
28 140 1
28 156 1
28 172 1
28 198 1
29 54 1
29 59 1
29 66 1
29 68 1
29 86 1
29 87 1
29 92 1
29 130 1
29 142 1
29 149 1
29 154 1
29 161 1
29 180 1
30 32 1
30 38 1
30 60 1
30 67 1
30 71 1
30 72 1
30 83 1
30 102 1
30 104 1
30 112 1
30 137 1
30 159 1
30 164 1
30 174 1
31 37 1
31 70 1
31 74 1
31 93 1
31 95 1
31 102 1
31 112 1
31 114 1
31 115 1
31 127 1
31 147 1
31 163 1
31 188 1
31 189 1
32 33 1
32 34 1
32 35 1
32 37 1
32 42 1
32 50 1
32 63 1
32 69 1
32 78 1
32 90 1
32 99 1
32 154 1
32 169 1
32 177 1
32 189 1
33 42 1
33 62 1
33 115 1
33 119 1
33 170 1
33 176 1
34 43 1
34 49 1
34 50 1
34 52 1
34 70 1
34 72 1
34 75 1
34 86 1
34 95 1
34 156 1
34 158 1
34 159 1
34 189 1
34 199 1
35 41 1
35 53 1
35 160 1
36 37 1
36 59 1
36 60 1
36 65 1
36 85 1
36 99 1
36 114 1
36 129 1
36 143 1
36 164 1
36 171 1
36 178 1
36 193 1
36 194 1
37 49 1
37 50 1
37 77 1
37 168 1
38 46 1
38 52 1
38 73 1
38 110 1
38 123 1
38 139 1
38 168 1
38 175 1
38 185 1
39 40 1
39 65 1
39 83 1
39 89 1
39 92 1
39 106 1
39 133 1
39 148 1
39 165 1
40 42 1
40 57 1
40 62 1
40 67 1
40 71 1
40 81 1
40 92 1
40 105 1
40 111 1
40 121 1
40 125 1
40 134 1
40 145 1
40 151 1
40 163 1
40 174 1
41 91 1
41 107 1
41 130 1
41 169 1
41 172 1
41 194 1
41 199 1
42 48 1
42 71 1
42 74 1
42 91 1
42 93 1
42 96 1
42 97 1
42 103 1
42 164 1
43 61 1
43 97 1
43 134 1
43 163 1
43 170 1
43 181 1
44 64 1
44 90 1
44 91 1
44 94 1
44 120 1
44 136 1
44 159 1
44 168 1
44 187 1
44 188 1
44 191 1
45 67 1
45 134 1
45 143 1
45 157 1
46 57 1
46 86 1
46 124 1
46 138 1
46 153 1
46 162 1
46 176 1
46 194 1
47 56 1
47 58 1
47 62 1
47 109 1
47 127 1
47 145 1
47 179 1
48 53 1
48 76 1
48 86 1
48 88 1
48 92 1
48 127 1
48 166 1
49 130 1
51 58 1
51 94 1
51 116 1
51 118 1
51 131 1
51 149 1
51 155 1
52 64 1
52 124 1
52 154 1
52 164 1
52 190 1
53 132 1
53 147 1
54 85 1
54 103 1
54 177 1
54 184 1
55 78 1
55 115 1
55 152 1
55 153 1
55 157 1
55 180 1
56 100 1
56 160 1
57 107 1
57 142 1
58 64 1
58 68 1
58 116 1
58 122 1
58 133 1
58 178 1
58 184 1
59 68 1
59 102 1
59 118 1
59 142 1
59 200 1
60 110 1
60 177 1
61 88 1
61 113 1
61 137 1
61 139 1
61 154 1
61 155 1
62 148 1
63 79 1
63 87 1
63 105 1
63 108 1
63 118 1
63 141 1
63 152 1
63 169 1
64 117 1
64 135 1
64 171 1
65 89 1
65 172 1
66 89 1
66 122 1
66 179 1
67 78 1
67 90 1
67 123 1
68 84 1
68 93 1
68 109 1
68 110 1
68 185 1
68 198 1
69 87 1
69 112 1
69 155 1
69 160 1
69 163 1
69 195 1
70 117 1
70 128 1
71 84 1
71 94 1
71 161 1
71 173 1
71 190 1
71 192 1
71 197 1
72 82 1
72 83 1
72 113 1
72 146 1
72 183 1
73 92 1
73 128 1
73 138 1
74 90 1
74 108 1
74 109 1
74 125 1
74 135 1
74 171 1
75 80 1
75 85 1
75 123 1
75 144 1
76 103 1
76 146 1
77 143 1
78 83 1
78 97 1
78 117 1
78 120 1
78 131 1
78 162 1
78 194 1
79 132 1
80 81 1
80 132 1
80 143 1
80 161 1
80 196 1
81 99 1
82 95 1
82 111 1
82 112 1
82 141 1
82 151 1
82 152 1
82 158 1
84 170 1
84 192 1
85 135 1
85 138 1
86 101 1
87 126 1
87 146 1
87 150 1
87 153 1
88 124 1
88 146 1
88 166 1
89 102 1
89 103 1
89 130 1
89 134 1
90 158 1
91 155 1
91 176 1
91 183 1
92 95 1
92 103 1
92 182 1
93 126 1
93 128 1
93 129 1
94 104 1
94 108 1
94 159 1
94 177 1
95 124 1
95 146 1
96 97 1
96 98 1
96 110 1
96 117 1
96 121 1
96 187 1
96 192 1
96 195 1
98 180 1
99 175 1
99 191 1
101 116 1
101 195 1
101 200 1
102 171 1
104 105 1
104 121 1
104 175 1
105 170 1
107 151 1
107 173 1
108 180 1
108 192 1
108 198 1
109 155 1
110 166 1
110 199 1
113 181 1
114 133 1
115 142 1
116 140 1
116 187 1
117 136 1
118 121 1
118 185 1
119 157 1
119 191 1
120 137 1
120 189 1
121 150 1
122 133 1
122 144 1
122 153 1
124 185 1
125 135 1
127 140 1
127 167 1
130 181 1
131 149 1
134 136 1
135 185 1
136 150 1
136 195 1
137 167 1
137 174 1
139 159 1
142 161 1
144 165 1
146 175 1
147 191 1
148 150 1
148 179 1
148 186 1
150 187 1
152 160 1
152 166 1
154 158 1
156 169 1
157 162 1
163 191 1
163 200 1
164 170 1
167 183 1
167 193 1
168 199 1
174 197 1
177 199 1
179 182 1
182 193 1
